NAME: ulysses22.tsp
TYPE: TSP
COMMENT: Shapley Experiment
DIMENSION: 16
EDGE_WEIGHT_TYPE: EUC_2D
DISPLAY_DATA_TYPE: COORD_DISPLAY
NODE_COORD_SECTION
1 7832.35 8636.73
2 3117.08 2670.28
3 5418.61 4337.02
4 1783.8 2337.7
5 5036.83 6086.31
6 1615.35 125.789
7 9326.23 6720.55
8 639.737 9071
9 638.778 4981.88
10 9884.28 2554.1
11 9545.26 4127.85
12 9292.78 9385.23
13 6608.22 1028.47
14 9378.04 4552.39
15 6276.72 1772.48
16 2367.93 8139.63
EOF
